p edges 32 258
e 0 2
e 0 9
e 0 11
e 0 15
e 0 16
e 0 17
e 0 18
e 0 20
e 0 22
e 0 23
e 0 26
e 0 30
e 0 31
e 1 3
e 1 4
e 1 5
e 1 6
e 1 8
e 1 11
e 1 12
e 1 14
e 1 15
e 1 17
e 1 22
e 1 24
e 1 25
e 1 28
e 1 30
e 2 4
e 2 5
e 2 6
e 2 7
e 2 8
e 2 13
e 2 15
e 2 18
e 2 19
e 2 20
e 2 24
e 2 26
e 2 27
e 2 28
e 2 29
e 2 31
e 3 4
e 3 5
e 3 6
e 3 8
e 3 9
e 3 11
e 3 12
e 3 15
e 3 18
e 3 21
e 3 23
e 3 25
e 3 26
e 3 27
e 3 28
e 3 29
e 3 30
e 3 31
e 4 7
e 4 8
e 4 10
e 4 11
e 4 12
e 4 13
e 4 15
e 4 16
e 4 18
e 4 19
e 4 23
e 4 26
e 4 27
e 4 28
e 4 30
e 4 31
e 5 11
e 5 12
e 5 13
e 5 15
e 5 16
e 5 17
e 5 20
e 5 21
e 5 26
e 5 27
e 5 29
e 5 31
e 6 7
e 6 8
e 6 9
e 6 12
e 6 16
e 6 17
e 6 18
e 6 20
e 6 24
e 6 25
e 6 29
e 7 8
e 7 11
e 7 19
e 7 20
e 7 24
e 7 26
e 7 30
e 7 31
e 8 9
e 8 10
e 8 11
e 8 12
e 8 14
e 8 16
e 8 20
e 8 21
e 8 23
e 8 29
e 8 30
e 8 31
e 9 10
e 9 11
e 9 12
e 9 15
e 9 16
e 9 17
e 9 18
e 9 19
e 9 20
e 9 22
e 9 26
e 9 27
e 9 28
e 9 29
e 9 30
e 10 11
e 10 12
e 10 14
e 10 15
e 10 16
e 10 18
e 10 20
e 10 21
e 10 22
e 10 25
e 10 26
e 10 27
e 10 30
e 10 31
e 11 14
e 11 15
e 11 16
e 11 18
e 11 19
e 11 20
e 11 22
e 11 23
e 11 24
e 11 25
e 11 29
e 12 16
e 12 19
e 12 21
e 12 24
e 12 25
e 12 27
e 12 28
e 13 15
e 13 16
e 13 20
e 13 21
e 13 22
e 13 27
e 13 28
e 13 29
e 14 15
e 14 16
e 14 17
e 14 18
e 14 19
e 14 22
e 14 24
e 14 27
e 14 29
e 15 18
e 15 21
e 15 22
e 15 25
e 15 27
e 15 28
e 15 29
e 15 30
e 15 31
e 16 17
e 16 18
e 16 19
e 16 21
e 16 22
e 16 23
e 16 25
e 16 26
e 16 27
e 16 30
e 16 31
e 17 19
e 17 21
e 17 25
e 17 26
e 17 27
e 17 30
e 18 20
e 18 22
e 18 23
e 18 24
e 18 25
e 18 26
e 18 27
e 18 28
e 18 29
e 18 30
e 18 31
e 19 29
e 19 31
e 20 21
e 20 29
e 20 30
e 20 31
e 21 23
e 21 24
e 21 25
e 21 28
e 21 31
e 22 23
e 22 24
e 22 25
e 22 26
e 22 27
e 22 28
e 22 31
e 23 24
e 23 25
e 23 27
e 23 28
e 23 29
e 23 30
e 24 29
e 25 26
e 25 27
e 25 28
e 25 29
e 26 27
e 26 28
e 26 31
e 27 28
e 27 30
e 27 31
e 28 29
